language ESSENCE' 1.0
$ minion Nodes: 1
$ minion TotalTime: 0.003382
$ Savile Row TotalTime: 1.276
letting s_SetExplicitVarSize_tuple1 be [true, true, true;int(1..3)]
letting s_SetExplicitVarSize_tuple2_tuple1 be [1, 2, 4;int(1..3)]
letting s_SetExplicitVarSize_tuple2_tuple2_SetOccurrence be [[false, true, false;int(1..3)], 
[false, false, true;int(1..3)], 
[true, false, false;int(1..3)];int(1..3)]
